Instance name:    bar-n100-5.txt
Authors:          Gerhard Hiermann
Date:             2022-mm-dd
Reference:        XYZ
Solution: 0;6;879.000;60.00 s
Route 1 :  3 53 28 46 78 25 96 41 75 91 19 69 1 2 52 43 93 51
Route 2 :  37 87 45 95 22 30 80 31 72 6 56 20 81 70 32 82
Route 3 :  15 36 50 65 11 100 10 86 61 49 60 38 14 88 99 64
Route 4 :  44 27 18 77 68 12 29 94 62 4 79 16 54 8 66 58 39 89
Route 5 :  13 63 34 47 84 35 97 42 23 92 85 9 59 17 73 67 33 83
Route 6 :  48 40 5 98 90 24 26 55 76 74 21 7 71 57
